
Log started (V11.0.0) Wed May 14 22:46:30 2008

Tried aggregator 1 time.
Reduced MIP has 140 rows, 4001 columns, and 8040 nonzeros.
Presolve time =    0.03 sec.
Clique table members: 100.
MIP emphasis: balance optimality and feasibility.
MIP search method: dynamic search.
Parallel mode: none, using 1 thread.
Root relaxation solution time =    0.12 sec.

        Nodes                                         Cuts/
   Node  Left     Objective  IInf  Best Integer     Best Node    ItCnt     Gap

*     0+    0                        10953.0000      250.4498      416   97.71%
*     0+    0                          302.0000      250.4498      416   17.07%
      0     0      251.7027    75      302.0000      Fract: 5      517   16.65%
*     0+    0                          301.0000      251.7027      517   16.38%
      0     0      275.2406    84      301.0000   MIRcuts: 39     1418    8.56%
      0     0      275.2414    91      301.0000   MIRcuts: 26     1582    8.56%
      0     0      275.2414   100      301.0000      Cuts: 29     1699    8.56%
*     0+    0                          300.0000      275.2414     1699    8.25%
      0     2      275.2414   100      300.0000      275.2414     1699    8.25%
    100    89      276.6468    83      300.0000      275.8676     7135    8.04%
    200   155      276.6623    74      300.0000      275.8676    18846    8.04%
    300   220      276.0000    67      300.0000      275.8676    31938    8.04%
    400   291      276.0000    65      300.0000      275.8676    43426    8.04%
    500   358      276.0000    66      300.0000      275.8676    55775    8.04%

Cover cuts applied:  27
Flow cuts applied:  4
Mixed integer rounding cuts applied:  36
Zero-half cuts applied:  6
Gomory fractional cuts applied:  1

Solution pool: 4 solutions saved.

MIP - Integer optimal solution:  Objective = 3.0000000000e+002
Solution time =   24.88 sec.  Iterations = 56916  Nodes = 511 (365)


Incumbent solution
Variable Name           Solution Value
Cmax                        300.000000
X_1_38                        1.000000
X_2_4                         1.000000
X_3_13                        1.000000
X_4_7                         1.000000
X_5_39                        1.000000
X_6_6                         1.000000
X_7_33                        1.000000
X_8_21                        1.000000
X_9_22                        1.000000
X_10_23                       1.000000
X_11_11                       1.000000
X_12_29                       1.000000
X_13_14                       1.000000
X_14_21                       1.000000
X_15_37                       1.000000
X_16_40                       1.000000
X_17_31                       1.000000
X_18_18                       1.000000
X_19_9                        1.000000
X_20_5                        1.000000
X_21_28                       1.000000
X_22_20                       1.000000
X_23_2                        1.000000
X_24_5                        1.000000
X_25_8                        1.000000
X_26_6                        1.000000
X_27_28                       1.000000
X_28_32                       1.000000
X_29_18                       1.000000
X_30_8                        1.000000
X_31_16                       1.000000
X_32_40                       1.000000
X_33_26                       1.000000
X_34_20                       1.000000
X_35_11                       1.000000
X_36_24                       1.000000
X_37_26                       1.000000
X_38_25                       1.000000
X_39_7                        1.000000
X_40_26                       1.000000
X_41_36                       1.000000
X_42_15                       1.000000
X_43_17                       1.000000
X_44_31                       1.000000
X_45_38                       1.000000
X_46_27                       1.000000
X_47_2                        1.000000
X_48_35                       1.000000
X_49_2                        1.000000
X_50_10                       1.000000
X_51_19                       1.000000
X_52_37                       1.000000
X_53_30                       1.000000
X_54_37                       1.000000
X_55_12                       1.000000
X_56_22                       1.000000
X_57_32                       1.000000
X_58_15                       1.000000
X_59_15                       1.000000
X_60_14                       1.000000
X_61_1                        1.000000
X_62_23                       1.000000
X_63_39                       1.000000
X_64_3                        1.000000
X_65_12                       1.000000
X_66_27                       1.000000
X_67_6                        1.000000
X_68_17                       1.000000
X_69_19                       1.000000
X_70_20                       1.000000
X_71_34                       1.000000
X_72_29                       1.000000
X_73_8                        1.000000
X_74_34                       1.000000
X_75_10                       1.000000
X_76_28                       1.000000
X_77_27                       1.000000
X_78_24                       1.000000
X_79_9                        1.000000
X_80_30                       1.000000
X_81_22                       1.000000
X_82_25                       1.000000
X_83_35                       1.000000
X_84_5                        1.000000
X_85_9                        1.000000
X_86_32                       1.000000
X_87_16                       1.000000
X_88_3                        1.000000
X_89_36                       1.000000
X_90_1                        1.000000
X_91_38                       1.000000
X_92_33                       1.000000
X_93_13                       1.000000
X_94_16                       1.000000
X_95_29                       1.000000
X_96_18                       1.000000
X_97_17                       1.000000
X_98_10                       1.000000
X_99_35                       1.000000
X_100_4                       1.000000
All other variables in the range 1-4001 are 0.
